Version identifier: 22.1.0.0 | 2022-03-09 | 1a383f8ce
CPXPARAM_Threads                                 1
CPXPARAM_MIP_Strategy_VariableSelect             3
CPXPARAM_TimeLimit                               593.11854313000003
1 of 1 MIP starts provided solutions.
MIP start 'm1' defined initial solution with objective 471.0000.
Tried aggregator 1 time.
MIP Presolve eliminated 17 rows and 0 columns.
MIP Presolve modified 6 coefficients.
Reduced MIP has 5003 rows, 10000 columns, and 126084 nonzeros.
Reduced MIP has 10000 binaries, 0 generals, 0 SOSs, and 0 indicators.
Presolve time = 0.09 sec. (75.31 ticks)
Probing time = 0.01 sec. (4.83 ticks)
Tried aggregator 1 time.
Detecting symmetries...
MIP Presolve eliminated 2 rows and 0 columns.
Reduced MIP has 5001 rows, 10000 columns, and 126014 nonzeros.
Reduced MIP has 10000 binaries, 0 generals, 0 SOSs, and 0 indicators.
Presolve time = 0.09 sec. (72.41 ticks)
Probing time = 0.01 sec. (4.83 ticks)
Clique table members: 2990.
MIP emphasis: balance optimality and feasibility.
MIP search method: dynamic search.
Parallel mode: none, using 1 thread.
Root relaxation solution time = 7.17 sec. (6351.06 ticks)

        Nodes                                         Cuts/
   Node  Left     Objective  IInf  Best Integer    Best Bound    ItCnt     Gap

*     0+    0                          471.0000    10000.0000              --- 
      0     0      500.0000  2214      471.0000      500.0000    13647    6.16%
*     0+    0                          492.0000      500.0000             1.63%
*     0+    0                          495.0000      500.0000             1.01%
      0     0        cutoff            495.0000      500.0000    13647    1.01%
      0     2      500.0000   184      495.0000      500.0000    13647    1.01%
Elapsed time = 47.21 sec. (41310.61 ticks, tree = 0.01 MB, solutions = 3)
      1     3      500.0000   544      495.0000      500.0000    43222    1.01%
      2     4      500.0000   195      495.0000      500.0000    45445    1.01%
      3     5      500.0000   287      495.0000      500.0000    53258    1.01%
      4     6      500.0000   245      495.0000      500.0000    57598    1.01%
      5     7      500.0000   249      495.0000      500.0000    58074    1.01%
      6     8      500.0000  1025      495.0000      500.0000    85025    1.01%
      7     9      500.0000   692      495.0000      500.0000    99776    1.01%
      8    10      500.0000   264      495.0000      500.0000   109413    1.01%
      9    11      500.0000   265      495.0000      500.0000   109417    1.01%
     10    12      500.0000   937      495.0000      500.0000   129918    1.01%
Elapsed time = 103.84 sec. (91128.86 ticks, tree = 0.04 MB, solutions = 3)
     11    13      500.0000   574      495.0000      500.0000   140319    1.01%
     12    14      500.0000   619      495.0000      500.0000   150528    1.01%
     14    16      500.0000   521      495.0000      500.0000   150962    1.01%
     16    18      500.0000   533      495.0000      500.0000   152103    1.01%
     17    19      500.0000   713      495.0000      500.0000   157533    1.01%
     19    21      500.0000   607      495.0000      500.0000   161489    1.01%
     20    22      500.0000   623      495.0000      500.0000   166937    1.01%
     21    23      500.0000   692      495.0000      500.0000   176632    1.01%
     22    24      500.0000   555      495.0000      500.0000   180931    1.01%
     23    25      500.0000   516      495.0000      500.0000   187464    1.01%
Elapsed time = 147.51 sec. (130123.94 ticks, tree = 0.39 MB, solutions = 3)
     24    26      500.0000   513      495.0000      500.0000   189163    1.01%
     25    27      500.0000   609      495.0000      500.0000   192189    1.01%
     26    28      500.0000  1092      495.0000      500.0000   204963    1.01%
     28    30      500.0000   530      495.0000      500.0000   213410    1.01%
     30    32      500.0000   530      495.0000      500.0000   213832    1.01%
     32    34      500.0000   505      495.0000      500.0000   216785    1.01%
     34    36      500.0000   515      495.0000      500.0000   218334    1.01%
     37    39      500.0000   513      495.0000      500.0000   219402    1.01%
     39    41      500.0000   453      495.0000      500.0000   225748    1.01%
     41    43      500.0000   444      495.0000      500.0000   227827    1.01%
Elapsed time = 199.13 sec. (174739.41 ticks, tree = 1.07 MB, solutions = 3)
     44    46      500.0000   455      495.0000      500.0000   228557    1.01%
     46    48      500.0000   439      495.0000      500.0000   235836    1.01%
     47    49      500.0000   460      495.0000      500.0000   241833    1.01%
     49    51      500.0000   414      495.0000      500.0000   242418    1.01%
     51    53      500.0000   399      495.0000      500.0000   245156    1.01%
     53    55      500.0000   392      495.0000      500.0000   246904    1.01%
     56    58      500.0000   371      495.0000      500.0000   250332    1.01%
     59    61      500.0000   364      495.0000      500.0000   251442    1.01%
     62    64      500.0000   359      495.0000      500.0000   253289    1.01%
     65    67      500.0000   324      495.0000      500.0000   255778    1.01%
Elapsed time = 213.12 sec. (187389.14 ticks, tree = 2.05 MB, solutions = 3)
     68    70      500.0000   304      495.0000      500.0000   259691    1.01%
     71    73      500.0000   248      495.0000      500.0000   264867    1.01%
     74    76      500.0000   213      495.0000      500.0000   269975    1.01%
     77    79      500.0000   206      495.0000      500.0000   270779    1.01%
     81    83      500.0000   198      495.0000      500.0000   271521    1.01%
     84    86      500.0000   188      495.0000      500.0000   277524    1.01%
     87    89      500.0000   192      495.0000      500.0000   283105    1.01%
     90    92      500.0000   182      495.0000      500.0000   286769    1.01%
     94    96      500.0000   182      495.0000      500.0000   287149    1.01%
     98   100      500.0000   182      495.0000      500.0000   288805    1.01%
Elapsed time = 225.42 sec. (199013.24 ticks, tree = 3.50 MB, solutions = 3)
    102   104      500.0000   180      495.0000      500.0000   290079    1.01%
    106   108      500.0000   182      495.0000      500.0000   291630    1.01%
    109   111      500.0000   189      495.0000      500.0000   296762    1.01%
    112   114      500.0000   210      495.0000      500.0000   299086    1.01%
    116   118      500.0000   204      495.0000      500.0000   300048    1.01%
    119   121      500.0000   229      495.0000      500.0000   304214    1.01%
    121   123      500.0000   190      495.0000      500.0000   304530    1.01%
    125   127      500.0000   196      495.0000      500.0000   304809    1.01%
    129   131      500.0000   186      495.0000      500.0000   306678    1.01%
    132   134      500.0000   179      495.0000      500.0000   310520    1.01%
Elapsed time = 237.07 sec. (210323.56 ticks, tree = 4.95 MB, solutions = 3)
    135   137      500.0000   173      495.0000      500.0000   316264    1.01%
    137   139      500.0000   189      495.0000      500.0000   326889    1.01%
    140   142      500.0000   187      495.0000      500.0000   330126    1.01%
    142   144      500.0000   196      495.0000      500.0000   337862    1.01%
    145   147      500.0000   177      495.0000      500.0000   340881    1.01%
    148   150      500.0000   155      495.0000      500.0000   343679    1.01%
    150   152      500.0000   158      495.0000      500.0000   347272    1.01%
    153   155      500.0000   148      495.0000      500.0000   351776    1.01%
    155   157      500.0000   238      495.0000      500.0000   360479    1.01%
    158   160      500.0000   150      495.0000      500.0000   362458    1.01%
Elapsed time = 249.89 sec. (221388.77 ticks, tree = 6.06 MB, solutions = 3)
    160   162      500.0000   149      495.0000      500.0000   362716    1.01%
    162   164      500.0000   184      495.0000      500.0000   367034    1.01%
    166   168      500.0000   142      495.0000      500.0000   368187    1.01%
    169   171      500.0000   127      495.0000      500.0000   372363    1.01%
    171   173      500.0000   123      495.0000      500.0000   380870    1.01%
    173   175      500.0000   126      495.0000      500.0000   388342    1.01%
    174   176      500.0000   210      495.0000      500.0000   397750    1.01%
    176   178      500.0000   174      495.0000      500.0000   404240    1.01%
    179   181      500.0000   126      495.0000      500.0000   407436    1.01%
    182   184      500.0000   128      495.0000      500.0000   409034    1.01%
Elapsed time = 262.21 sec. (231840.88 ticks, tree = 7.04 MB, solutions = 3)
    184   186      500.0000   143      495.0000      500.0000   416037    1.01%
    187   189      500.0000   122      495.0000      500.0000   418881    1.01%
    189   191      500.0000   130      495.0000      500.0000   427164    1.01%
    192   194      500.0000   111      495.0000      500.0000   430757    1.01%
    196   198      500.0000   101      495.0000      500.0000   431258    1.01%
    200   202      500.0000    95      495.0000      500.0000   432635    1.01%
    204   206      500.0000    99      495.0000      500.0000   433746    1.01%
    208   210      500.0000    84      495.0000      500.0000   437411    1.01%
    212   214      500.0000    87      495.0000      500.0000   442148    1.01%
    216   218      500.0000    93      495.0000      500.0000   446620    1.01%
Elapsed time = 273.58 sec. (242131.68 ticks, tree = 8.48 MB, solutions = 3)
    220   222      500.0000    95      495.0000      500.0000   450773    1.01%
    224   226      500.0000    97      495.0000      500.0000   453718    1.01%
    227   229      500.0000    87      495.0000      500.0000   455726    1.01%
    230   232      500.0000    77      495.0000      500.0000   459208    1.01%
    234   236      500.0000   107      495.0000      500.0000   463135    1.01%
    237   239      500.0000    68      495.0000      500.0000   467944    1.01%
    240   242      500.0000    60      495.0000      500.0000   471615    1.01%
    244   246      500.0000    68      495.0000      500.0000   477699    1.01%
    247   249      500.0000    66      495.0000      500.0000   485329    1.01%
    257   259      500.0000    62      495.0000      500.0000   502711    1.01%
Elapsed time = 290.48 sec. (257351.06 ticks, tree = 10.28 MB, solutions = 3)
    265   267      500.0000    79      495.0000      500.0000   526340    1.01%
    275   277      500.0000    71      495.0000      500.0000   546574    1.01%
    285   287      500.0000    89      495.0000      500.0000   573383    1.01%
    302   304      500.0000    32      495.0000      500.0000   583975    1.01%
    312   314      500.0000    46      495.0000      500.0000   612488    1.01%
    331   333      500.0000    34      495.0000      500.0000   631492    1.01%
    345   347      500.0000    82      495.0000      500.0000   653174    1.01%
    357   359      500.0000    20      495.0000      500.0000   679951    1.01%
    368   370      500.0000    54      495.0000      500.0000   713907    1.01%
    386   388      500.0000    40      495.0000      500.0000   737102    1.01%
Elapsed time = 338.61 sec. (297126.31 ticks, tree = 15.73 MB, solutions = 3)
    399   401      500.0000    48      495.0000      500.0000   767124    1.01%
    415   417      500.0000    90      495.0000      500.0000   790408    1.01%
    429   431      500.0000    69      495.0000      500.0000   819816    1.01%
    444   444    infeasible            495.0000      500.0000   850991    1.01%
    458   458      500.0000    93      495.0000      500.0000   875898    1.01%
    476   476      500.0000    56      495.0000      500.0000   900561    1.01%
    489   485      500.0000   109      495.0000      500.0000   933879    1.01%
*   495+    1                          500.0000      500.0000             0.00%

Root node processing (before b&c):
  Real time             =   47.15 sec. (41250.02 ticks)
Sequential b&c:
  Real time             =  329.26 sec. (285785.65 ticks)
                          ------------
Total (root+branch&cut) =  376.41 sec. (327035.67 ticks)
Primal:	500
Dual:	500
Status:	Optimal
Time:	376.41
Sequence:
	15
	0
	16
	15
	0
	6
	15
	0
	16
	15
	0
	6
	15
	2
	0
	15
	0
	16
	15
	0
	16
	17
	11
	7
	10
	8
	6
	10
	4
	3
	10
	4
	3
	10
	4
	3
	10
	4
	3
	17
	16
	8
	17
	16
	9
	17
	2
	19
	17
	2
	9
	10
	6
	8
	10
	0
	19
	17
	2
	19
	17
	0
	8
	17
	16
	8
	17
	0
	16
	15
	7
	0
	15
	16
	0
	15
	7
	2
	10
	3
	4
	18
	14
	3
	4
	10
	3
	4
	10
	6
	3
	10
	16
	7
	15
	6
	2
	15
	7
	6
	15
	0
	16
	15
	0
	7
	15
	16
	2
	9
	17
	16
	2
	15
	6
	0
	15
	7
	16
	15
	0
	6
	15
	7
	16
	15
	0
	0
	15
	16
	0
	15
	6
	2
	15
	6
	7
	15
	16
	2
	17
	4
	3
	10
	2
	9
	14
	1
	7
	9
	17
	16
	9
	17
	0
	19
	17
	2
	19
	17
	7
	9
	10
	2
	9
	10
	7
	11
	14
	1
	9
	14
	1
	11
	14
	1
	9
	12
	13
	11
	12
	13
	11
	5
	18
	11
	5
	13
	11
	12
	1
	16
	5
	8
	18
	5
	8
	13
	12
	11
	13
	5
	8
	13
	5
	11
	1
	14
	11
	1
	14
	9
	1
	14
	11
	1
	14
	9
	1
	14
	8
	1
	14
	3
	18
	14
	3
	18
	5
	11
	18
	5
	8
	13
	12
	8
	13
	5
	8
	1
	14
	4
	18
	14
	4
	18
	5
	9
	18
	5
	9
	13
	12
	8
	1
	14
	9
	1
	12
	8
	13
	5
	11
	13
	12
	9
	2
	17
	19
	7
	17
	19
	2
	10
	9
	6
	10
	11
	7
	17
	19
	2
	17
	9
	7
	14
	8
	18
	5
	9
	13
	5
	8
	18
	14
	3
	1
	14
	8
	1
	14
	9
	1
	14
	8
	18
	5
	9
	13
	5
	8
	18
	14
	4
	3
	10
	4
	3
	10
	7
	8
	17
	16
	11
	17
	0
	19
	10
	0
	19
	5
	18
	19
	5
	18
	9
	12
	1
	19
	5
	1
	8
	14
	2
	1
	5
	9
	18
	12
	8
	7
	17
	11
	0
	17
	19
	2
	10
	4
	3
	10
	4
	3
	10
	4
	2
	17
	19
	7
	5
	11
	18
	12
	9
	1
	14
	9
	7
	10
	9
	2
	17
	19
	0
	7
	15
	6
	7
	15
	16
	7
	15
	7
	16
	15
	0
	7
	15
	16
	7
	15
	6
	2
	10
	3
	4
	14
	18
	8
	5
	13
	11
	12
	13
	9
	5
	18
	11
	5
	1
	11
	14
	1
	4
	14
	1
	11
	14
	1
	9
	12
	18
	9
	12
	13
	8
	5
	7
	9
	14
	7
	7
	15
	7
	16
	15
	7
	16
	5
	18
	19
	5
	18
	9
	5
	13
	11
	12
	13
	9
	12
	13
	11
	12
	13
	11
	5
	18
	19
	5
	18
	3
	14
	4
	18
	5
	19
	18
	5
	8
	13
	5
	9
	13
	12
	11
	13
	5
	8
	13
	5
	8
	18
	14
	4
	3
	17
	2
	19
	10
